Reading model...
...model read.
creating competitive generators file...
...competitive generators recorded.
Loading data...
.. real-time data read.
Compiling instance...
...instance created.
Creating Offer Mitigation (model will solve as dispatch if TRUE)...
...storage offer mitigation file created
Solving...

Welcome to IBM(R) ILOG(R) CPLEX(R) Interactive Optimizer 12.10.0.0
  with Simplex, Mixed Integer & Barrier Optimizers
5725-A06 5725-A29 5724-Y48 5724-Y49 5724-Y54 5724-Y55 5655-Y21
Copyright IBM Corp. 1988, 2019.  All Rights Reserved.

Type 'help' for a list of available commands.
Type 'help' followed by a command name for more
information on commands.

CPLEX> Logfile 'cplex.log' closed.
Logfile 'C:\Users\wenmi\Desktop\competitiveMPEC\logs\tmpwotzbu2s.cplex.log' open.
CPLEX> New value for parallel optimization mode: -1
CPLEX> New value for mixed integer optimality gap tolerance: 0.001
CPLEX> New value for deterministic time limit in ticks: 100000
CPLEX> Problem 'C:\Users\wenmi\Desktop\competitiveMPEC\logs\tmp0uy0x2vc.pyomo.lp' read.
Read time = 0.06 sec. (6.05 ticks)
CPLEX> Problem name         : C:\Users\wenmi\Desktop\competitiveMPEC\logs\tmp0uy0x2vc.pyomo.lp
Objective sense      : Minimize
Variables            :   52213  [Nneg: 1,  Box: 43284,  Free: 8928]
Objective nonzeros   :    4992
Linear constraints   :   55209  [Less: 28070,  Greater: 8832,  Equal: 18307]
  Nonzeros           :  174299
  RHS nonzeros       :   25589

Variables            : Min LB: -5000.000        Max UB: 1000000.       
Objective nonzeros   : Min   : 15.73158         Max   : 124.0997       
Linear constraints   :
  Nonzeros           : Min   : 0.6893086        Max   : 390.6461       
  RHS nonzeros       : Min   : 0.02500000       Max   : 5000.000       
CPLEX> Version identifier: 12.10.0.0 | 2019-11-26 | 843d4de2ae
CPXPARAM_Parallel                                -1
CPXPARAM_DetTimeLimit                            100000
CPXPARAM_MIP_Tolerances_MIPGap                   0.001
Parallel mode: opportunistic, using up to 16 threads for concurrent optimization:
 * Starting dual Simplex on 1 thread...
 * Starting Barrier on 14 threads...
 * Starting primal Simplex on 1 thread...
Tried aggregator 1 time.
LP Presolve eliminated 42929 rows and 30855 columns.
Aggregator did 1440 substitutions.
Reduced LP has 10840 rows, 19918 columns, and 61568 nonzeros.
Presolve time = 0.08 sec. (59.17 ticks)
Symmetry aggregator did 11353 additional substitutions.
Initializing dual steep norms . . .

Iteration log . . .
Iteration:     1   Dual objective     =             0.000000
Perturbation started.
Iteration:   101   Dual objective     =             0.000000
Iteration:   380   Dual objective     =            68.665260
Iteration:   746   Dual objective     =           125.845051
Iteration:  1109   Dual objective     =           145.882673
Iteration:  1448   Dual objective     =           146.524220
Iteration:  1723   Dual objective     =           146.528002
Iteration:  1981   Dual objective     =           782.140289
Iteration:  2184   Dual objective     =          7314.236456
Iteration:  2502   Dual objective     =         32233.940176
Removing perturbation.

Dual crossover.
  Dual:  Fixing 10 variables.
        9 DMoves:  Infeasibility  2.45137244e-13  Objective  3.23706045e+04
        0 DMoves:  Infeasibility  6.57252031e-14  Objective  3.23706045e+04
  Dual:  Pushed 0, exchanged 10.
  Primal:  Fixing 4 variables.
        3 PMoves:  Infeasibility  5.77711035e-09  Objective  3.23706045e+04
        0 PMoves:  Infeasibility  5.77711035e-09  Objective  3.23706045e+04
  Primal:  Pushed 4, exchanged 0.

Dual simplex solved model.


Dual simplex - Optimal:  Objective =  3.2370604516e+04
Solution time =    0.20 sec.  Iterations = 2804 (0)
Deterministic time = 163.91 ticks  (807.41 ticks/sec)

CPLEX> Solution written to file 'C:\Users\wenmi\Desktop\competitiveMPEC\logs\tmp53wted0w.cplex.sol'.
CPLEX> Exporting results... 
